(set-logic QF_LRA)
(declare-fun X0 () Real )
(declare-fun Y0 () Real )
(declare-fun X1 () Real )
(declare-fun Y1 () Real )
(declare-fun X2 () Real )
(declare-fun Y2 () Real )
(declare-fun X3 () Real )
(declare-fun Y3 () Real )
(declare-fun X4 () Real )
(declare-fun Y4 () Real )
(declare-fun X5 () Real )
(declare-fun Y5 () Real )
(declare-fun X6 () Real )
(declare-fun Y6 () Real )
(declare-fun X7 () Real )
(declare-fun Y7 () Real )
(declare-fun X8 () Real )
(declare-fun Y8 () Real )
(declare-fun X9 () Real )
(declare-fun Y9 () Real )
(declare-fun X10 () Real )
(declare-fun Y10 () Real )
(declare-fun X11 () Real )
(declare-fun Y11 () Real )
(declare-fun X12 () Real )
(declare-fun Y12 () Real )
(declare-fun X13 () Real )
(declare-fun Y13 () Real )
(declare-fun X14 () Real )
(declare-fun Y14 () Real )
(declare-fun X15 () Real )
(declare-fun Y15 () Real )
(declare-fun X16 () Real )
(declare-fun Y16 () Real )
(declare-fun X17 () Real )
(declare-fun Y17 () Real )
(declare-fun Z () Real )
(assert ( and  
( or ( <= ( + X0 46 ) X1 )  ( <= ( + X1 21 ) X0 )  ( <= ( + Y0 47 ) Y1 )  ( <= ( + Y1 27 ) Y0 )  )
( or ( <= ( + X0 46 ) X2 )  ( <= ( + X2 92 ) X0 )  ( <= ( + Y0 47 ) Y2 )  ( <= ( + Y2 12 ) Y0 )  )
( or ( <= ( + X0 46 ) X3 )  ( <= ( + X3 18 ) X0 )  ( <= ( + Y0 47 ) Y3 )  ( <= ( + Y3 34 ) Y0 )  )
( or ( <= ( + X0 46 ) X4 )  ( <= ( + X4 2 ) X0 )  ( <= ( + Y0 47 ) Y4 )  ( <= ( + Y4 43 ) Y0 )  )
( or ( <= ( + X0 46 ) X5 )  ( <= ( + X5 42 ) X0 )  ( <= ( + Y0 47 ) Y5 )  ( <= ( + Y5 37 ) Y0 )  )
( or ( <= ( + X0 46 ) X6 )  ( <= ( + X6 30 ) X0 )  ( <= ( + Y0 47 ) Y6 )  ( <= ( + Y6 68 ) Y0 )  )
( or ( <= ( + X0 46 ) X7 )  ( <= ( + X7 19 ) X0 )  ( <= ( + Y0 47 ) Y7 )  ( <= ( + Y7 61 ) Y0 )  )
( or ( <= ( + X0 46 ) X8 )  ( <= ( + X8 12 ) X0 )  ( <= ( + Y0 47 ) Y8 )  ( <= ( + Y8 39 ) Y0 )  )
( or ( <= ( + X0 46 ) X9 )  ( <= ( + X9 69 ) X0 )  ( <= ( + Y0 47 ) Y9 )  ( <= ( + Y9 92 ) Y0 )  )
( or ( <= ( + X0 46 ) X10 )  ( <= ( + X10 38 ) X0 )  ( <= ( + Y0 47 ) Y10 )  ( <= ( + Y10 82 ) Y0 )  )
( or ( <= ( + X0 46 ) X11 )  ( <= ( + X11 66 ) X0 )  ( <= ( + Y0 47 ) Y11 )  ( <= ( + Y11 6 ) Y0 )  )
( or ( <= ( + X0 46 ) X12 )  ( <= ( + X12 45 ) X0 )  ( <= ( + Y0 47 ) Y12 )  ( <= ( + Y12 84 ) Y0 )  )
( or ( <= ( + X0 46 ) X13 )  ( <= ( + X13 6 ) X0 )  ( <= ( + Y0 47 ) Y13 )  ( <= ( + Y13 79 ) Y0 )  )
( or ( <= ( + X0 46 ) X14 )  ( <= ( + X14 1 ) X0 )  ( <= ( + Y0 47 ) Y14 )  ( <= ( + Y14 26 ) Y0 )  )
( or ( <= ( + X0 46 ) X15 )  ( <= ( + X15 63 ) X0 )  ( <= ( + Y0 47 ) Y15 )  ( <= ( + Y15 75 ) Y0 )  )
( or ( <= ( + X0 46 ) X16 )  ( <= ( + X16 82 ) X0 )  ( <= ( + Y0 47 ) Y16 )  ( <= ( + Y16 48 ) Y0 )  )
( or ( <= ( + X0 46 ) X17 )  ( <= ( + X17 90 ) X0 )  ( <= ( + Y0 47 ) Y17 )  ( <= ( + Y17 80 ) Y0 )  )
( or ( <= ( + X1 21 ) X2 )  ( <= ( + X2 92 ) X1 )  ( <= ( + Y1 27 ) Y2 )  ( <= ( + Y2 12 ) Y1 )  )
( or ( <= ( + X1 21 ) X3 )  ( <= ( + X3 18 ) X1 )  ( <= ( + Y1 27 ) Y3 )  ( <= ( + Y3 34 ) Y1 )  )
( or ( <= ( + X1 21 ) X4 )  ( <= ( + X4 2 ) X1 )  ( <= ( + Y1 27 ) Y4 )  ( <= ( + Y4 43 ) Y1 )  )
( or ( <= ( + X1 21 ) X5 )  ( <= ( + X5 42 ) X1 )  ( <= ( + Y1 27 ) Y5 )  ( <= ( + Y5 37 ) Y1 )  )
( or ( <= ( + X1 21 ) X6 )  ( <= ( + X6 30 ) X1 )  ( <= ( + Y1 27 ) Y6 )  ( <= ( + Y6 68 ) Y1 )  )
( or ( <= ( + X1 21 ) X7 )  ( <= ( + X7 19 ) X1 )  ( <= ( + Y1 27 ) Y7 )  ( <= ( + Y7 61 ) Y1 )  )
( or ( <= ( + X1 21 ) X8 )  ( <= ( + X8 12 ) X1 )  ( <= ( + Y1 27 ) Y8 )  ( <= ( + Y8 39 ) Y1 )  )
( or ( <= ( + X1 21 ) X9 )  ( <= ( + X9 69 ) X1 )  ( <= ( + Y1 27 ) Y9 )  ( <= ( + Y9 92 ) Y1 )  )
( or ( <= ( + X1 21 ) X10 )  ( <= ( + X10 38 ) X1 )  ( <= ( + Y1 27 ) Y10 )  ( <= ( + Y10 82 ) Y1 )  )
( or ( <= ( + X1 21 ) X11 )  ( <= ( + X11 66 ) X1 )  ( <= ( + Y1 27 ) Y11 )  ( <= ( + Y11 6 ) Y1 )  )
( or ( <= ( + X1 21 ) X12 )  ( <= ( + X12 45 ) X1 )  ( <= ( + Y1 27 ) Y12 )  ( <= ( + Y12 84 ) Y1 )  )
( or ( <= ( + X1 21 ) X13 )  ( <= ( + X13 6 ) X1 )  ( <= ( + Y1 27 ) Y13 )  ( <= ( + Y13 79 ) Y1 )  )
( or ( <= ( + X1 21 ) X14 )  ( <= ( + X14 1 ) X1 )  ( <= ( + Y1 27 ) Y14 )  ( <= ( + Y14 26 ) Y1 )  )
( or ( <= ( + X1 21 ) X15 )  ( <= ( + X15 63 ) X1 )  ( <= ( + Y1 27 ) Y15 )  ( <= ( + Y15 75 ) Y1 )  )
( or ( <= ( + X1 21 ) X16 )  ( <= ( + X16 82 ) X1 )  ( <= ( + Y1 27 ) Y16 )  ( <= ( + Y16 48 ) Y1 )  )
( or ( <= ( + X1 21 ) X17 )  ( <= ( + X17 90 ) X1 )  ( <= ( + Y1 27 ) Y17 )  ( <= ( + Y17 80 ) Y1 )  )
( or ( <= ( + X2 92 ) X3 )  ( <= ( + X3 18 ) X2 )  ( <= ( + Y2 12 ) Y3 )  ( <= ( + Y3 34 ) Y2 )  )
( or ( <= ( + X2 92 ) X4 )  ( <= ( + X4 2 ) X2 )  ( <= ( + Y2 12 ) Y4 )  ( <= ( + Y4 43 ) Y2 )  )
( or ( <= ( + X2 92 ) X5 )  ( <= ( + X5 42 ) X2 )  ( <= ( + Y2 12 ) Y5 )  ( <= ( + Y5 37 ) Y2 )  )
( or ( <= ( + X2 92 ) X6 )  ( <= ( + X6 30 ) X2 )  ( <= ( + Y2 12 ) Y6 )  ( <= ( + Y6 68 ) Y2 )  )
( or ( <= ( + X2 92 ) X7 )  ( <= ( + X7 19 ) X2 )  ( <= ( + Y2 12 ) Y7 )  ( <= ( + Y7 61 ) Y2 )  )
( or ( <= ( + X2 92 ) X8 )  ( <= ( + X8 12 ) X2 )  ( <= ( + Y2 12 ) Y8 )  ( <= ( + Y8 39 ) Y2 )  )
( or ( <= ( + X2 92 ) X9 )  ( <= ( + X9 69 ) X2 )  ( <= ( + Y2 12 ) Y9 )  ( <= ( + Y9 92 ) Y2 )  )
( or ( <= ( + X2 92 ) X10 )  ( <= ( + X10 38 ) X2 )  ( <= ( + Y2 12 ) Y10 )  ( <= ( + Y10 82 ) Y2 )  )
( or ( <= ( + X2 92 ) X11 )  ( <= ( + X11 66 ) X2 )  ( <= ( + Y2 12 ) Y11 )  ( <= ( + Y11 6 ) Y2 )  )
( or ( <= ( + X2 92 ) X12 )  ( <= ( + X12 45 ) X2 )  ( <= ( + Y2 12 ) Y12 )  ( <= ( + Y12 84 ) Y2 )  )
( or ( <= ( + X2 92 ) X13 )  ( <= ( + X13 6 ) X2 )  ( <= ( + Y2 12 ) Y13 )  ( <= ( + Y13 79 ) Y2 )  )
( or ( <= ( + X2 92 ) X14 )  ( <= ( + X14 1 ) X2 )  ( <= ( + Y2 12 ) Y14 )  ( <= ( + Y14 26 ) Y2 )  )
( or ( <= ( + X2 92 ) X15 )  ( <= ( + X15 63 ) X2 )  ( <= ( + Y2 12 ) Y15 )  ( <= ( + Y15 75 ) Y2 )  )
( or ( <= ( + X2 92 ) X16 )  ( <= ( + X16 82 ) X2 )  ( <= ( + Y2 12 ) Y16 )  ( <= ( + Y16 48 ) Y2 )  )
( or ( <= ( + X2 92 ) X17 )  ( <= ( + X17 90 ) X2 )  ( <= ( + Y2 12 ) Y17 )  ( <= ( + Y17 80 ) Y2 )  )
( or ( <= ( + X3 18 ) X4 )  ( <= ( + X4 2 ) X3 )  ( <= ( + Y3 34 ) Y4 )  ( <= ( + Y4 43 ) Y3 )  )
( or ( <= ( + X3 18 ) X5 )  ( <= ( + X5 42 ) X3 )  ( <= ( + Y3 34 ) Y5 )  ( <= ( + Y5 37 ) Y3 )  )
( or ( <= ( + X3 18 ) X6 )  ( <= ( + X6 30 ) X3 )  ( <= ( + Y3 34 ) Y6 )  ( <= ( + Y6 68 ) Y3 )  )
( or ( <= ( + X3 18 ) X7 )  ( <= ( + X7 19 ) X3 )  ( <= ( + Y3 34 ) Y7 )  ( <= ( + Y7 61 ) Y3 )  )
( or ( <= ( + X3 18 ) X8 )  ( <= ( + X8 12 ) X3 )  ( <= ( + Y3 34 ) Y8 )  ( <= ( + Y8 39 ) Y3 )  )
( or ( <= ( + X3 18 ) X9 )  ( <= ( + X9 69 ) X3 )  ( <= ( + Y3 34 ) Y9 )  ( <= ( + Y9 92 ) Y3 )  )
( or ( <= ( + X3 18 ) X10 )  ( <= ( + X10 38 ) X3 )  ( <= ( + Y3 34 ) Y10 )  ( <= ( + Y10 82 ) Y3 )  )
( or ( <= ( + X3 18 ) X11 )  ( <= ( + X11 66 ) X3 )  ( <= ( + Y3 34 ) Y11 )  ( <= ( + Y11 6 ) Y3 )  )
( or ( <= ( + X3 18 ) X12 )  ( <= ( + X12 45 ) X3 )  ( <= ( + Y3 34 ) Y12 )  ( <= ( + Y12 84 ) Y3 )  )
( or ( <= ( + X3 18 ) X13 )  ( <= ( + X13 6 ) X3 )  ( <= ( + Y3 34 ) Y13 )  ( <= ( + Y13 79 ) Y3 )  )
( or ( <= ( + X3 18 ) X14 )  ( <= ( + X14 1 ) X3 )  ( <= ( + Y3 34 ) Y14 )  ( <= ( + Y14 26 ) Y3 )  )
( or ( <= ( + X3 18 ) X15 )  ( <= ( + X15 63 ) X3 )  ( <= ( + Y3 34 ) Y15 )  ( <= ( + Y15 75 ) Y3 )  )
( or ( <= ( + X3 18 ) X16 )  ( <= ( + X16 82 ) X3 )  ( <= ( + Y3 34 ) Y16 )  ( <= ( + Y16 48 ) Y3 )  )
( or ( <= ( + X3 18 ) X17 )  ( <= ( + X17 90 ) X3 )  ( <= ( + Y3 34 ) Y17 )  ( <= ( + Y17 80 ) Y3 )  )
( or ( <= ( + X4 2 ) X5 )  ( <= ( + X5 42 ) X4 )  ( <= ( + Y4 43 ) Y5 )  ( <= ( + Y5 37 ) Y4 )  )
( or ( <= ( + X4 2 ) X6 )  ( <= ( + X6 30 ) X4 )  ( <= ( + Y4 43 ) Y6 )  ( <= ( + Y6 68 ) Y4 )  )
( or ( <= ( + X4 2 ) X7 )  ( <= ( + X7 19 ) X4 )  ( <= ( + Y4 43 ) Y7 )  ( <= ( + Y7 61 ) Y4 )  )
( or ( <= ( + X4 2 ) X8 )  ( <= ( + X8 12 ) X4 )  ( <= ( + Y4 43 ) Y8 )  ( <= ( + Y8 39 ) Y4 )  )
( or ( <= ( + X4 2 ) X9 )  ( <= ( + X9 69 ) X4 )  ( <= ( + Y4 43 ) Y9 )  ( <= ( + Y9 92 ) Y4 )  )
( or ( <= ( + X4 2 ) X10 )  ( <= ( + X10 38 ) X4 )  ( <= ( + Y4 43 ) Y10 )  ( <= ( + Y10 82 ) Y4 )  )
( or ( <= ( + X4 2 ) X11 )  ( <= ( + X11 66 ) X4 )  ( <= ( + Y4 43 ) Y11 )  ( <= ( + Y11 6 ) Y4 )  )
( or ( <= ( + X4 2 ) X12 )  ( <= ( + X12 45 ) X4 )  ( <= ( + Y4 43 ) Y12 )  ( <= ( + Y12 84 ) Y4 )  )
( or ( <= ( + X4 2 ) X13 )  ( <= ( + X13 6 ) X4 )  ( <= ( + Y4 43 ) Y13 )  ( <= ( + Y13 79 ) Y4 )  )
( or ( <= ( + X4 2 ) X14 )  ( <= ( + X14 1 ) X4 )  ( <= ( + Y4 43 ) Y14 )  ( <= ( + Y14 26 ) Y4 )  )
( or ( <= ( + X4 2 ) X15 )  ( <= ( + X15 63 ) X4 )  ( <= ( + Y4 43 ) Y15 )  ( <= ( + Y15 75 ) Y4 )  )
( or ( <= ( + X4 2 ) X16 )  ( <= ( + X16 82 ) X4 )  ( <= ( + Y4 43 ) Y16 )  ( <= ( + Y16 48 ) Y4 )  )
( or ( <= ( + X4 2 ) X17 )  ( <= ( + X17 90 ) X4 )  ( <= ( + Y4 43 ) Y17 )  ( <= ( + Y17 80 ) Y4 )  )
( or ( <= ( + X5 42 ) X6 )  ( <= ( + X6 30 ) X5 )  ( <= ( + Y5 37 ) Y6 )  ( <= ( + Y6 68 ) Y5 )  )
( or ( <= ( + X5 42 ) X7 )  ( <= ( + X7 19 ) X5 )  ( <= ( + Y5 37 ) Y7 )  ( <= ( + Y7 61 ) Y5 )  )
( or ( <= ( + X5 42 ) X8 )  ( <= ( + X8 12 ) X5 )  ( <= ( + Y5 37 ) Y8 )  ( <= ( + Y8 39 ) Y5 )  )
( or ( <= ( + X5 42 ) X9 )  ( <= ( + X9 69 ) X5 )  ( <= ( + Y5 37 ) Y9 )  ( <= ( + Y9 92 ) Y5 )  )
( or ( <= ( + X5 42 ) X10 )  ( <= ( + X10 38 ) X5 )  ( <= ( + Y5 37 ) Y10 )  ( <= ( + Y10 82 ) Y5 )  )
( or ( <= ( + X5 42 ) X11 )  ( <= ( + X11 66 ) X5 )  ( <= ( + Y5 37 ) Y11 )  ( <= ( + Y11 6 ) Y5 )  )
( or ( <= ( + X5 42 ) X12 )  ( <= ( + X12 45 ) X5 )  ( <= ( + Y5 37 ) Y12 )  ( <= ( + Y12 84 ) Y5 )  )
( or ( <= ( + X5 42 ) X13 )  ( <= ( + X13 6 ) X5 )  ( <= ( + Y5 37 ) Y13 )  ( <= ( + Y13 79 ) Y5 )  )
( or ( <= ( + X5 42 ) X14 )  ( <= ( + X14 1 ) X5 )  ( <= ( + Y5 37 ) Y14 )  ( <= ( + Y14 26 ) Y5 )  )
( or ( <= ( + X5 42 ) X15 )  ( <= ( + X15 63 ) X5 )  ( <= ( + Y5 37 ) Y15 )  ( <= ( + Y15 75 ) Y5 )  )
( or ( <= ( + X5 42 ) X16 )  ( <= ( + X16 82 ) X5 )  ( <= ( + Y5 37 ) Y16 )  ( <= ( + Y16 48 ) Y5 )  )
( or ( <= ( + X5 42 ) X17 )  ( <= ( + X17 90 ) X5 )  ( <= ( + Y5 37 ) Y17 )  ( <= ( + Y17 80 ) Y5 )  )
( or ( <= ( + X6 30 ) X7 )  ( <= ( + X7 19 ) X6 )  ( <= ( + Y6 68 ) Y7 )  ( <= ( + Y7 61 ) Y6 )  )
( or ( <= ( + X6 30 ) X8 )  ( <= ( + X8 12 ) X6 )  ( <= ( + Y6 68 ) Y8 )  ( <= ( + Y8 39 ) Y6 )  )
( or ( <= ( + X6 30 ) X9 )  ( <= ( + X9 69 ) X6 )  ( <= ( + Y6 68 ) Y9 )  ( <= ( + Y9 92 ) Y6 )  )
( or ( <= ( + X6 30 ) X10 )  ( <= ( + X10 38 ) X6 )  ( <= ( + Y6 68 ) Y10 )  ( <= ( + Y10 82 ) Y6 )  )
( or ( <= ( + X6 30 ) X11 )  ( <= ( + X11 66 ) X6 )  ( <= ( + Y6 68 ) Y11 )  ( <= ( + Y11 6 ) Y6 )  )
( or ( <= ( + X6 30 ) X12 )  ( <= ( + X12 45 ) X6 )  ( <= ( + Y6 68 ) Y12 )  ( <= ( + Y12 84 ) Y6 )  )
( or ( <= ( + X6 30 ) X13 )  ( <= ( + X13 6 ) X6 )  ( <= ( + Y6 68 ) Y13 )  ( <= ( + Y13 79 ) Y6 )  )
( or ( <= ( + X6 30 ) X14 )  ( <= ( + X14 1 ) X6 )  ( <= ( + Y6 68 ) Y14 )  ( <= ( + Y14 26 ) Y6 )  )
( or ( <= ( + X6 30 ) X15 )  ( <= ( + X15 63 ) X6 )  ( <= ( + Y6 68 ) Y15 )  ( <= ( + Y15 75 ) Y6 )  )
( or ( <= ( + X6 30 ) X16 )  ( <= ( + X16 82 ) X6 )  ( <= ( + Y6 68 ) Y16 )  ( <= ( + Y16 48 ) Y6 )  )
( or ( <= ( + X6 30 ) X17 )  ( <= ( + X17 90 ) X6 )  ( <= ( + Y6 68 ) Y17 )  ( <= ( + Y17 80 ) Y6 )  )
( or ( <= ( + X7 19 ) X8 )  ( <= ( + X8 12 ) X7 )  ( <= ( + Y7 61 ) Y8 )  ( <= ( + Y8 39 ) Y7 )  )
( or ( <= ( + X7 19 ) X9 )  ( <= ( + X9 69 ) X7 )  ( <= ( + Y7 61 ) Y9 )  ( <= ( + Y9 92 ) Y7 )  )
( or ( <= ( + X7 19 ) X10 )  ( <= ( + X10 38 ) X7 )  ( <= ( + Y7 61 ) Y10 )  ( <= ( + Y10 82 ) Y7 )  )
( or ( <= ( + X7 19 ) X11 )  ( <= ( + X11 66 ) X7 )  ( <= ( + Y7 61 ) Y11 )  ( <= ( + Y11 6 ) Y7 )  )
( or ( <= ( + X7 19 ) X12 )  ( <= ( + X12 45 ) X7 )  ( <= ( + Y7 61 ) Y12 )  ( <= ( + Y12 84 ) Y7 )  )
( or ( <= ( + X7 19 ) X13 )  ( <= ( + X13 6 ) X7 )  ( <= ( + Y7 61 ) Y13 )  ( <= ( + Y13 79 ) Y7 )  )
( or ( <= ( + X7 19 ) X14 )  ( <= ( + X14 1 ) X7 )  ( <= ( + Y7 61 ) Y14 )  ( <= ( + Y14 26 ) Y7 )  )
( or ( <= ( + X7 19 ) X15 )  ( <= ( + X15 63 ) X7 )  ( <= ( + Y7 61 ) Y15 )  ( <= ( + Y15 75 ) Y7 )  )
( or ( <= ( + X7 19 ) X16 )  ( <= ( + X16 82 ) X7 )  ( <= ( + Y7 61 ) Y16 )  ( <= ( + Y16 48 ) Y7 )  )
( or ( <= ( + X7 19 ) X17 )  ( <= ( + X17 90 ) X7 )  ( <= ( + Y7 61 ) Y17 )  ( <= ( + Y17 80 ) Y7 )  )
( or ( <= ( + X8 12 ) X9 )  ( <= ( + X9 69 ) X8 )  ( <= ( + Y8 39 ) Y9 )  ( <= ( + Y9 92 ) Y8 )  )
( or ( <= ( + X8 12 ) X10 )  ( <= ( + X10 38 ) X8 )  ( <= ( + Y8 39 ) Y10 )  ( <= ( + Y10 82 ) Y8 )  )
( or ( <= ( + X8 12 ) X11 )  ( <= ( + X11 66 ) X8 )  ( <= ( + Y8 39 ) Y11 )  ( <= ( + Y11 6 ) Y8 )  )
( or ( <= ( + X8 12 ) X12 )  ( <= ( + X12 45 ) X8 )  ( <= ( + Y8 39 ) Y12 )  ( <= ( + Y12 84 ) Y8 )  )
( or ( <= ( + X8 12 ) X13 )  ( <= ( + X13 6 ) X8 )  ( <= ( + Y8 39 ) Y13 )  ( <= ( + Y13 79 ) Y8 )  )
( or ( <= ( + X8 12 ) X14 )  ( <= ( + X14 1 ) X8 )  ( <= ( + Y8 39 ) Y14 )  ( <= ( + Y14 26 ) Y8 )  )
( or ( <= ( + X8 12 ) X15 )  ( <= ( + X15 63 ) X8 )  ( <= ( + Y8 39 ) Y15 )  ( <= ( + Y15 75 ) Y8 )  )
( or ( <= ( + X8 12 ) X16 )  ( <= ( + X16 82 ) X8 )  ( <= ( + Y8 39 ) Y16 )  ( <= ( + Y16 48 ) Y8 )  )
( or ( <= ( + X8 12 ) X17 )  ( <= ( + X17 90 ) X8 )  ( <= ( + Y8 39 ) Y17 )  ( <= ( + Y17 80 ) Y8 )  )
( or ( <= ( + X9 69 ) X10 )  ( <= ( + X10 38 ) X9 )  ( <= ( + Y9 92 ) Y10 )  ( <= ( + Y10 82 ) Y9 )  )
( or ( <= ( + X9 69 ) X11 )  ( <= ( + X11 66 ) X9 )  ( <= ( + Y9 92 ) Y11 )  ( <= ( + Y11 6 ) Y9 )  )
( or ( <= ( + X9 69 ) X12 )  ( <= ( + X12 45 ) X9 )  ( <= ( + Y9 92 ) Y12 )  ( <= ( + Y12 84 ) Y9 )  )
( or ( <= ( + X9 69 ) X13 )  ( <= ( + X13 6 ) X9 )  ( <= ( + Y9 92 ) Y13 )  ( <= ( + Y13 79 ) Y9 )  )
( or ( <= ( + X9 69 ) X14 )  ( <= ( + X14 1 ) X9 )  ( <= ( + Y9 92 ) Y14 )  ( <= ( + Y14 26 ) Y9 )  )
( or ( <= ( + X9 69 ) X15 )  ( <= ( + X15 63 ) X9 )  ( <= ( + Y9 92 ) Y15 )  ( <= ( + Y15 75 ) Y9 )  )
( or ( <= ( + X9 69 ) X16 )  ( <= ( + X16 82 ) X9 )  ( <= ( + Y9 92 ) Y16 )  ( <= ( + Y16 48 ) Y9 )  )
( or ( <= ( + X9 69 ) X17 )  ( <= ( + X17 90 ) X9 )  ( <= ( + Y9 92 ) Y17 )  ( <= ( + Y17 80 ) Y9 )  )
( or ( <= ( + X10 38 ) X11 )  ( <= ( + X11 66 ) X10 )  ( <= ( + Y10 82 ) Y11 )  ( <= ( + Y11 6 ) Y10 )  )
( or ( <= ( + X10 38 ) X12 )  ( <= ( + X12 45 ) X10 )  ( <= ( + Y10 82 ) Y12 )  ( <= ( + Y12 84 ) Y10 )  )
( or ( <= ( + X10 38 ) X13 )  ( <= ( + X13 6 ) X10 )  ( <= ( + Y10 82 ) Y13 )  ( <= ( + Y13 79 ) Y10 )  )
( or ( <= ( + X10 38 ) X14 )  ( <= ( + X14 1 ) X10 )  ( <= ( + Y10 82 ) Y14 )  ( <= ( + Y14 26 ) Y10 )  )
( or ( <= ( + X10 38 ) X15 )  ( <= ( + X15 63 ) X10 )  ( <= ( + Y10 82 ) Y15 )  ( <= ( + Y15 75 ) Y10 )  )
( or ( <= ( + X10 38 ) X16 )  ( <= ( + X16 82 ) X10 )  ( <= ( + Y10 82 ) Y16 )  ( <= ( + Y16 48 ) Y10 )  )
( or ( <= ( + X10 38 ) X17 )  ( <= ( + X17 90 ) X10 )  ( <= ( + Y10 82 ) Y17 )  ( <= ( + Y17 80 ) Y10 )  )
( or ( <= ( + X11 66 ) X12 )  ( <= ( + X12 45 ) X11 )  ( <= ( + Y11 6 ) Y12 )  ( <= ( + Y12 84 ) Y11 )  )
( or ( <= ( + X11 66 ) X13 )  ( <= ( + X13 6 ) X11 )  ( <= ( + Y11 6 ) Y13 )  ( <= ( + Y13 79 ) Y11 )  )
( or ( <= ( + X11 66 ) X14 )  ( <= ( + X14 1 ) X11 )  ( <= ( + Y11 6 ) Y14 )  ( <= ( + Y14 26 ) Y11 )  )
( or ( <= ( + X11 66 ) X15 )  ( <= ( + X15 63 ) X11 )  ( <= ( + Y11 6 ) Y15 )  ( <= ( + Y15 75 ) Y11 )  )
( or ( <= ( + X11 66 ) X16 )  ( <= ( + X16 82 ) X11 )  ( <= ( + Y11 6 ) Y16 )  ( <= ( + Y16 48 ) Y11 )  )
( or ( <= ( + X11 66 ) X17 )  ( <= ( + X17 90 ) X11 )  ( <= ( + Y11 6 ) Y17 )  ( <= ( + Y17 80 ) Y11 )  )
( or ( <= ( + X12 45 ) X13 )  ( <= ( + X13 6 ) X12 )  ( <= ( + Y12 84 ) Y13 )  ( <= ( + Y13 79 ) Y12 )  )
( or ( <= ( + X12 45 ) X14 )  ( <= ( + X14 1 ) X12 )  ( <= ( + Y12 84 ) Y14 )  ( <= ( + Y14 26 ) Y12 )  )
( or ( <= ( + X12 45 ) X15 )  ( <= ( + X15 63 ) X12 )  ( <= ( + Y12 84 ) Y15 )  ( <= ( + Y15 75 ) Y12 )  )
( or ( <= ( + X12 45 ) X16 )  ( <= ( + X16 82 ) X12 )  ( <= ( + Y12 84 ) Y16 )  ( <= ( + Y16 48 ) Y12 )  )
( or ( <= ( + X12 45 ) X17 )  ( <= ( + X17 90 ) X12 )  ( <= ( + Y12 84 ) Y17 )  ( <= ( + Y17 80 ) Y12 )  )
( or ( <= ( + X13 6 ) X14 )  ( <= ( + X14 1 ) X13 )  ( <= ( + Y13 79 ) Y14 )  ( <= ( + Y14 26 ) Y13 )  )
( or ( <= ( + X13 6 ) X15 )  ( <= ( + X15 63 ) X13 )  ( <= ( + Y13 79 ) Y15 )  ( <= ( + Y15 75 ) Y13 )  )
( or ( <= ( + X13 6 ) X16 )  ( <= ( + X16 82 ) X13 )  ( <= ( + Y13 79 ) Y16 )  ( <= ( + Y16 48 ) Y13 )  )
( or ( <= ( + X13 6 ) X17 )  ( <= ( + X17 90 ) X13 )  ( <= ( + Y13 79 ) Y17 )  ( <= ( + Y17 80 ) Y13 )  )
( or ( <= ( + X14 1 ) X15 )  ( <= ( + X15 63 ) X14 )  ( <= ( + Y14 26 ) Y15 )  ( <= ( + Y15 75 ) Y14 )  )
( or ( <= ( + X14 1 ) X16 )  ( <= ( + X16 82 ) X14 )  ( <= ( + Y14 26 ) Y16 )  ( <= ( + Y16 48 ) Y14 )  )
( or ( <= ( + X14 1 ) X17 )  ( <= ( + X17 90 ) X14 )  ( <= ( + Y14 26 ) Y17 )  ( <= ( + Y17 80 ) Y14 )  )
( or ( <= ( + X15 63 ) X16 )  ( <= ( + X16 82 ) X15 )  ( <= ( + Y15 75 ) Y16 )  ( <= ( + Y16 48 ) Y15 )  )
( or ( <= ( + X15 63 ) X17 )  ( <= ( + X17 90 ) X15 )  ( <= ( + Y15 75 ) Y17 )  ( <= ( + Y17 80 ) Y15 )  )
( or ( <= ( + X16 82 ) X17 )  ( <= ( + X17 90 ) X16 )  ( <= ( + Y16 48 ) Y17 )  ( <= ( + Y17 80 ) Y16 )  )
( >= X0 0)
( <= ( + X0 46) Z)
( >= Y0 0)
( <= ( + Y0 47 ) 100)
( >= X1 0)
( <= ( + X1 21) Z)
( >= Y1 0)
( <= ( + Y1 27 ) 100)
( >= X2 0)
( <= ( + X2 92) Z)
( >= Y2 0)
( <= ( + Y2 12 ) 100)
( >= X3 0)
( <= ( + X3 18) Z)
( >= Y3 0)
( <= ( + Y3 34 ) 100)
( >= X4 0)
( <= ( + X4 2) Z)
( >= Y4 0)
( <= ( + Y4 43 ) 100)
( >= X5 0)
( <= ( + X5 42) Z)
( >= Y5 0)
( <= ( + Y5 37 ) 100)
( >= X6 0)
( <= ( + X6 30) Z)
( >= Y6 0)
( <= ( + Y6 68 ) 100)
( >= X7 0)
( <= ( + X7 19) Z)
( >= Y7 0)
( <= ( + Y7 61 ) 100)
( >= X8 0)
( <= ( + X8 12) Z)
( >= Y8 0)
( <= ( + Y8 39 ) 100)
( >= X9 0)
( <= ( + X9 69) Z)
( >= Y9 0)
( <= ( + Y9 92 ) 100)
( >= X10 0)
( <= ( + X10 38) Z)
( >= Y10 0)
( <= ( + Y10 82 ) 100)
( >= X11 0)
( <= ( + X11 66) Z)
( >= Y11 0)
( <= ( + Y11 6 ) 100)
( >= X12 0)
( <= ( + X12 45) Z)
( >= Y12 0)
( <= ( + Y12 84 ) 100)
( >= X13 0)
( <= ( + X13 6) Z)
( >= Y13 0)
( <= ( + Y13 79 ) 100)
( >= X14 0)
( <= ( + X14 1) Z)
( >= Y14 0)
( <= ( + Y14 26 ) 100)
( >= X15 0)
( <= ( + X15 63) Z)
( >= Y15 0)
( <= ( + Y15 75 ) 100)
( >= X16 0)
( <= ( + X16 82) Z)
( >= Y16 0)
( <= ( + Y16 48 ) 100)
( >= X17 0)
( <= ( + X17 90) Z)
( >= Y17 0)
( <= ( + Y17 80 ) 100)
) )
(minimize Z)
(check-sat)
